; chc-comp19-benchmarks/./lia-lin-arr/chc-lia-lin-arr-0182_000.smt2
(set-logic HORN)

(declare-fun |ULTIMATE.start_L32-3| ( Int (Array Int Int) (Array Int Int) (Array Int (Array Int Int)) (Array Int (Array Int Int)) Int Int (Array Int Int) (Array Int Int) Int Int Int Int Int Int Int Int Int Int Int Int Int Int Int Int Int Int Int Int Bool ) Bool)
(declare-fun |ULTIMATE.start_L2| ( Int (Array Int Int) (Array Int Int) (Array Int (Array Int Int)) (Array Int (Array Int Int)) Int Int (Array Int Int) (Array Int Int) Int Int Int Int Int Int Int Int Int Int Int Int Int Int Int Int Int Int Int Int Bool ) Bool)
(declare-fun |ULTIMATE.start_ULTIMATE.startFINAL| ( Int (Array Int Int) (Array Int Int) (Array Int (Array Int Int)) (Array Int (Array Int Int)) Int Int (Array Int Int) (Array Int Int) Int Int Int Int Int Int Int Int Int Int Int Int Int Int Int Int Int Int Int Int Bool ) Bool)
(declare-fun |ULTIMATE.start_ULTIMATE.startEXIT| ( Int (Array Int Int) (Array Int Int) (Array Int (Array Int Int)) (Array Int (Array Int Int)) Int Int (Array Int Int) (Array Int Int) Int Int Int Int Int Int Int Int Int Int Int Int Int Int Int Int Int Int Int Int Bool ) Bool)
(declare-fun |ULTIMATE.start_L14-2| ( Int (Array Int Int) (Array Int Int) (Array Int (Array Int Int)) (Array Int (Array Int Int)) Int Int (Array Int Int) (Array Int Int) Int Int Int Int Int Int Int Int Int Int Int Int Int Int Int Int Int Int Int Int Bool ) Bool)
(declare-fun |ULTIMATE.start_L10-4| ( Int (Array Int Int) (Array Int Int) (Array Int (Array Int Int)) (Array Int (Array Int Int)) Int Int (Array Int Int) (Array Int Int) Int Int Int Int Int Int Int Int Int Int Int Int Int Int Int Int Int Int Int Int Bool ) Bool)
(declare-fun |ULTIMATE.start_L34| ( Int (Array Int Int) (Array Int Int) (Array Int (Array Int Int)) (Array Int (Array Int Int)) Int Int (Array Int Int) (Array Int Int) Int Int Int Int Int Int Int Int Int Int Int Int Int Int Int Int Int Int Int Int Bool ) Bool)
(declare-fun |ULTIMATE.start_L19| ( Int (Array Int Int) (Array Int Int) (Array Int (Array Int Int)) (Array Int (Array Int Int)) Int Int (Array Int Int) (Array Int Int) Int Int Int Int Int Int Int Int Int Int Int Int Int Int Int Int Int Int Int Int Bool ) Bool)
(declare-fun |ULTIMATE.start_L2-1| ( Int (Array Int Int) (Array Int Int) (Array Int (Array Int Int)) (Array Int (Array Int Int)) Int Int (Array Int Int) (Array Int Int) Int Int Int Int Int Int Int Int Int Int Int Int Int Int Int Int Int Int Int Int Bool ) Bool)
(declare-fun |ULTIMATE.start_L10-2| ( Int (Array Int Int) (Array Int Int) (Array Int (Array Int Int)) (Array Int (Array Int Int)) Int Int (Array Int Int) (Array Int Int) Int Int Int Int Int Int Int Int Int Int Int Int Int Int Int Int Int Int Int Int Bool ) Bool)
(declare-fun |ULTIMATE.start_ULTIMATE.startENTRY| ( Int (Array Int Int) (Array Int Int) (Array Int (Array Int Int)) (Array Int (Array Int Int)) Int Int (Array Int Int) (Array Int Int) Int Int Int Int Int Int Int Int Int Int Int Int Int Int Int Int Int Int Int Int Bool ) Bool)
(declare-fun |ULTIMATE.start_L-1| ( Int (Array Int Int) (Array Int Int) (Array Int (Array Int Int)) (Array Int (Array Int Int)) Int Int (Array Int Int) (Array Int Int) Int Int Int Int Int Int Int Int Int Int Int Int Int Int Int Int Int Int Int Int Bool ) Bool)
(declare-fun |ULTIMATE.start_L39| ( Int (Array Int Int) (Array Int Int) (Array Int (Array Int Int)) (Array Int (Array Int Int)) Int Int (Array Int Int) (Array Int Int) Int Int Int Int Int Int Int Int Int Int Int Int Int Int Int Int Int Int Int Int Bool ) Bool)
(declare-fun |ULTIMATE.start_L32-2| ( Int (Array Int Int) (Array Int Int) (Array Int (Array Int Int)) (Array Int (Array Int Int)) Int Int (Array Int Int) (Array Int Int) Int Int Int Int Int Int Int Int Int Int Int Int Int Int Int Int Int Int Int Int Bool ) Bool)
(declare-fun |ULTIMATE.start_L32-4| ( Int (Array Int Int) (Array Int Int) (Array Int (Array Int Int)) (Array Int (Array Int Int)) Int Int (Array Int Int) (Array Int Int) Int Int Int Int Int Int Int Int Int Int Int Int Int Int Int Int Int Int Int Int Bool ) Bool)
(declare-fun |ULTIMATE.start_L21| ( Int (Array Int Int) (Array Int Int) (Array Int (Array Int Int)) (Array Int (Array Int Int)) Int Int (Array Int Int) (Array Int Int) Int Int Int Int Int Int Int Int Int Int Int Int Int Int Int Int Int Int Int Int Bool ) Bool)
(declare-fun |ULTIMATE.start_L2-3| ( Int (Array Int Int) (Array Int Int) (Array Int (Array Int Int)) (Array Int (Array Int Int)) Int Int (Array Int Int) (Array Int Int) Int Int Int Int Int Int Int Int Int Int Int Int Int Int Int Int Int Int Int Int Bool ) Bool)
(declare-fun |ULTIMATE.start_L14| ( Int (Array Int Int) (Array Int Int) (Array Int (Array Int Int)) (Array Int (Array Int Int)) Int Int (Array Int Int) (Array Int Int) Int Int Int Int Int Int Int Int Int Int Int Int Int Int Int Int Int Int Int Int Bool ) Bool)
(declare-fun |ULTIMATE.start_L10-3| ( Int (Array Int Int) (Array Int Int) (Array Int (Array Int Int)) (Array Int (Array Int Int)) Int Int (Array Int Int) (Array Int Int) Int Int Int Int Int Int Int Int Int Int Int Int Int Int Int Int Int Int Int Int Bool ) Bool)

(assert
  (forall ( (A Int) (B (Array Int Int)) (C (Array Int Int)) (D (Array Int (Array Int Int))) (E (Array Int (Array Int Int))) (F Int) (G Int) (H (Array Int Int)) (I (Array Int Int)) (J Int) (K Int) (L Int) (M Int) (N Int) (O Int) (P Int) (Q Int) (R Int) (S Int) (T Int) (U Int) (V Int) (W Int) (X Int) (Y Int) (Z Int) (A1 Int) (B1 Int) (C1 Int) (D1 Bool) (E1 (Array Int Int)) (F1 Int) (G1 Int) ) 
    (=>
      (and
        (ULTIMATE.start_ULTIMATE.startENTRY
  A
  E1
  C
  D
  E
  F1
  G
  H
  I
  G1
  K
  L
  M
  N
  O
  P
  Q
  R
  S
  T
  U
  V
  W
  X
  Y
  Z
  A1
  B1
  C1
  D1)
        (or D1 (and (= J 0) (= F 0) (= B (store E1 0 0))))
      )
      (ULTIMATE.start_L-1
  A
  B
  C
  D
  E
  F
  G
  H
  I
  J
  K
  L
  M
  N
  O
  P
  Q
  R
  S
  T
  U
  V
  W
  X
  Y
  Z
  A1
  B1
  C1
  D1)
    )
  )
)
(assert
  (forall ( (A Int) (B (Array Int Int)) (C (Array Int Int)) (D (Array Int (Array Int Int))) (E (Array Int (Array Int Int))) (F Int) (G Int) (H (Array Int Int)) (I (Array Int Int)) (J Int) (K Int) (L Int) (M Int) (N Int) (O Int) (P Int) (Q Int) (R Int) (S Int) (T Int) (U Int) (V Int) (W Int) (X Int) (Y Int) (Z Int) (A1 Int) (B1 Int) (C1 Int) (D1 Bool) (E1 (Array Int Int)) (F1 (Array Int Int)) (G1 Int) (H1 Int) (I1 Int) (J1 Int) (K1 Int) (L1 Int) (M1 Int) (N1 Int) (O1 Int) (P1 Int) (Q1 Int) (R1 Int) (S1 Int) (T1 Int) (U1 Int) ) 
    (=>
      (and
        (ULTIMATE.start_L-1
  A
  E1
  C
  D
  E
  F
  G
  F1
  I
  J
  K
  G1
  H1
  N
  I1
  J1
  K1
  L1
  S
  M1
  N1
  O1
  P1
  Q1
  R1
  Z
  S1
  T1
  U1
  D1)
        (let ((a!1 (= (select (store (store E1 V 1) Y 1) R) 0))
      (a!2 (= H (store (store (store F1 V 400000) Y 400000) R 400000)))
      (a!3 (= B (store (store (store E1 V 1) Y 1) R 1))))
(let ((a!4 (and (not (<= A R))
                (not (<= A Y))
                (not (<= A V))
                (= O 0)
                (not (= R 0))
                (not (= Y 0))
                (not (= V 0))
                (= Q 0)
                (= 0 M)
                (= 0 A1)
                (= 0 (select E1 V))
                (= (select (store E1 V 1) Y) 0)
                a!1
                a!2
                a!3)))
  (or D1 a!4)))
      )
      (ULTIMATE.start_L10-3
  A
  B
  C
  D
  E
  F
  G
  H
  I
  J
  K
  L
  M
  N
  O
  P
  Q
  R
  S
  T
  U
  V
  W
  X
  Y
  Z
  A1
  B1
  C1
  D1)
    )
  )
)
(assert
  (forall ( (A Int) (B (Array Int Int)) (C (Array Int Int)) (D (Array Int (Array Int Int))) (E (Array Int (Array Int Int))) (F Int) (G Int) (H (Array Int Int)) (I (Array Int Int)) (J Int) (K Int) (L Int) (M Int) (N Int) (O Int) (P Int) (Q Int) (R Int) (S Int) (T Int) (U Int) (V Int) (W Int) (X Int) (Y Int) (Z Int) (A1 Int) (B1 Int) (C1 Int) (D1 Bool) ) 
    (=>
      (and
        (ULTIMATE.start_L10-3
  A
  B
  C
  D
  E
  F
  G
  H
  I
  J
  K
  L
  M
  N
  O
  P
  Q
  R
  S
  T
  U
  V
  W
  X
  Y
  Z
  A1
  B1
  C1
  D1)
        (= D1 true)
      )
      (ULTIMATE.start_L10-4
  A
  B
  C
  D
  E
  F
  G
  H
  I
  J
  K
  L
  M
  N
  O
  P
  Q
  R
  S
  T
  U
  V
  W
  X
  Y
  Z
  A1
  B1
  C1
  D1)
    )
  )
)
(assert
  (forall ( (A Int) (B (Array Int Int)) (C (Array Int Int)) (D (Array Int (Array Int Int))) (E (Array Int (Array Int Int))) (F Int) (G Int) (H (Array Int Int)) (I (Array Int Int)) (J Int) (K Int) (L Int) (M Int) (N Int) (O Int) (P Int) (Q Int) (R Int) (S Int) (T Int) (U Int) (V Int) (W Int) (X Int) (Y Int) (Z Int) (A1 Int) (B1 Int) (C1 Int) (D1 Bool) ) 
    (=>
      (and
        (ULTIMATE.start_L10-3
  A
  B
  C
  D
  E
  F
  G
  H
  I
  J
  K
  L
  M
  N
  O
  P
  Q
  R
  S
  T
  U
  V
  W
  X
  Y
  Z
  A1
  B1
  C1
  D1)
        (or D1 (<= 100000 O))
      )
      (ULTIMATE.start_L10-4
  A
  B
  C
  D
  E
  F
  G
  H
  I
  J
  K
  L
  M
  N
  O
  P
  Q
  R
  S
  T
  U
  V
  W
  X
  Y
  Z
  A1
  B1
  C1
  D1)
    )
  )
)
(assert
  (forall ( (A Int) (B (Array Int Int)) (C (Array Int Int)) (D (Array Int (Array Int Int))) (E (Array Int (Array Int Int))) (F Int) (G Int) (H (Array Int Int)) (I (Array Int Int)) (J Int) (K Int) (L Int) (M Int) (N Int) (O Int) (P Int) (Q Int) (R Int) (S Int) (T Int) (U Int) (V Int) (W Int) (X Int) (Y Int) (Z Int) (A1 Int) (B1 Int) (C1 Int) (D1 Bool) (E1 (Array Int (Array Int Int))) (F1 Int) (G1 Int) ) 
    (=>
      (and
        (ULTIMATE.start_L10-3
  A
  B
  C
  E1
  E
  F
  G
  H
  I
  J
  K
  F1
  M
  N
  O
  P
  Q
  R
  S
  T
  G1
  V
  W
  X
  Y
  Z
  A1
  B1
  C1
  D1)
        (let ((a!1 (store E1 V (store (select E1 V) (+ M (* 4 O)) 0))))
  (or D1
      (and (<= F1 2147483647)
           (not (<= 100000 O))
           (<= (- 2147483648) F1)
           (= U F1)
           (= D a!1))))
      )
      (ULTIMATE.start_L14
  A
  B
  C
  D
  E
  F
  G
  H
  I
  J
  K
  L
  M
  N
  O
  P
  Q
  R
  S
  T
  U
  V
  W
  X
  Y
  Z
  A1
  B1
  C1
  D1)
    )
  )
)
(assert
  (forall ( (A Int) (B (Array Int Int)) (C (Array Int Int)) (D (Array Int (Array Int Int))) (E (Array Int (Array Int Int))) (F Int) (G Int) (H (Array Int Int)) (I (Array Int Int)) (J Int) (K Int) (L Int) (M Int) (N Int) (O Int) (P Int) (Q Int) (R Int) (S Int) (T Int) (U Int) (V Int) (W Int) (X Int) (Y Int) (Z Int) (A1 Int) (B1 Int) (C1 Int) (D1 Bool) (E1 (Array Int (Array Int Int))) (F1 Int) ) 
    (=>
      (and
        (ULTIMATE.start_L10-4
  A
  B
  C
  E1
  E
  F
  G
  H
  I
  J
  K
  L
  M
  N
  F1
  P
  Q
  R
  S
  T
  U
  V
  W
  X
  Y
  Z
  A1
  B1
  C1
  D1)
        (let ((a!1 (= D (store E1 V (store (select E1 V) (+ 60000 M) 1)))))
  (or D1 (and (= O 0) a!1)))
      )
      (ULTIMATE.start_L32-3
  A
  B
  C
  D
  E
  F
  G
  H
  I
  J
  K
  L
  M
  N
  O
  P
  Q
  R
  S
  T
  U
  V
  W
  X
  Y
  Z
  A1
  B1
  C1
  D1)
    )
  )
)
(assert
  (forall ( (A Int) (B (Array Int Int)) (C (Array Int Int)) (D (Array Int (Array Int Int))) (E (Array Int (Array Int Int))) (F Int) (G Int) (H (Array Int Int)) (I (Array Int Int)) (J Int) (K Int) (L Int) (M Int) (N Int) (O Int) (P Int) (Q Int) (R Int) (S Int) (T Int) (U Int) (V Int) (W Int) (X Int) (Y Int) (Z Int) (A1 Int) (B1 Int) (C1 Int) (D1 Bool) (E1 (Array Int (Array Int Int))) ) 
    (=>
      (and
        (ULTIMATE.start_L14
  A
  B
  C
  E1
  E
  F
  G
  H
  I
  J
  K
  L
  M
  N
  O
  P
  Q
  R
  S
  T
  U
  V
  W
  X
  Y
  Z
  A1
  B1
  C1
  D1)
        (let ((a!1 (store E1 V (store (select E1 V) (+ M (* 4 O)) 1)))
      (a!2 (and (not (<= 0 O)) (not (= 0 (mod O 2))))))
(let ((a!3 (store (select a!1 Y)
                  (+ A1 (* 4 O))
                  (ite a!2 (+ (- 2) (mod O 2)) (mod O 2)))))
  (or D1 (and (= 0 U) (= D (store a!1 Y a!3))))))
      )
      (ULTIMATE.start_L14-2
  A
  B
  C
  D
  E
  F
  G
  H
  I
  J
  K
  L
  M
  N
  O
  P
  Q
  R
  S
  T
  U
  V
  W
  X
  Y
  Z
  A1
  B1
  C1
  D1)
    )
  )
)
(assert
  (forall ( (A Int) (B (Array Int Int)) (C (Array Int Int)) (D (Array Int (Array Int Int))) (E (Array Int (Array Int Int))) (F Int) (G Int) (H (Array Int Int)) (I (Array Int Int)) (J Int) (K Int) (L Int) (M Int) (N Int) (O Int) (P Int) (Q Int) (R Int) (S Int) (T Int) (U Int) (V Int) (W Int) (X Int) (Y Int) (Z Int) (A1 Int) (B1 Int) (C1 Int) (D1 Bool) ) 
    (=>
      (and
        (ULTIMATE.start_L14
  A
  B
  C
  D
  E
  F
  G
  H
  I
  J
  K
  L
  M
  N
  O
  P
  Q
  R
  S
  T
  U
  V
  W
  X
  Y
  Z
  A1
  B1
  C1
  D1)
        (or D1 (not (= 0 U)))
      )
      (ULTIMATE.start_L14-2
  A
  B
  C
  D
  E
  F
  G
  H
  I
  J
  K
  L
  M
  N
  O
  P
  Q
  R
  S
  T
  U
  V
  W
  X
  Y
  Z
  A1
  B1
  C1
  D1)
    )
  )
)
(assert
  (forall ( (A Int) (B (Array Int Int)) (C (Array Int Int)) (D (Array Int (Array Int Int))) (E (Array Int (Array Int Int))) (F Int) (G Int) (H (Array Int Int)) (I (Array Int Int)) (J Int) (K Int) (L Int) (M Int) (N Int) (O Int) (P Int) (Q Int) (R Int) (S Int) (T Int) (U Int) (V Int) (W Int) (X Int) (Y Int) (Z Int) (A1 Int) (B1 Int) (C1 Int) (D1 Bool) ) 
    (=>
      (and
        (ULTIMATE.start_L32-3
  A
  B
  C
  D
  E
  F
  G
  H
  I
  J
  K
  L
  M
  N
  O
  P
  Q
  R
  S
  T
  U
  V
  W
  X
  Y
  Z
  A1
  B1
  C1
  D1)
        (= D1 true)
      )
      (ULTIMATE.start_L32-4
  A
  B
  C
  D
  E
  F
  G
  H
  I
  J
  K
  L
  M
  N
  O
  P
  Q
  R
  S
  T
  U
  V
  W
  X
  Y
  Z
  A1
  B1
  C1
  D1)
    )
  )
)
(assert
  (forall ( (A Int) (B (Array Int Int)) (C (Array Int Int)) (D (Array Int (Array Int Int))) (E (Array Int (Array Int Int))) (F Int) (G Int) (H (Array Int Int)) (I (Array Int Int)) (J Int) (K Int) (L Int) (M Int) (N Int) (O Int) (P Int) (Q Int) (R Int) (S Int) (T Int) (U Int) (V Int) (W Int) (X Int) (Y Int) (Z Int) (A1 Int) (B1 Int) (C1 Int) (D1 Bool) ) 
    (=>
      (and
        (ULTIMATE.start_L32-3
  A
  B
  C
  D
  E
  F
  G
  H
  I
  J
  K
  L
  M
  N
  O
  P
  Q
  R
  S
  T
  U
  V
  W
  X
  Y
  Z
  A1
  B1
  C1
  D1)
        (or D1 (<= 100000 O))
      )
      (ULTIMATE.start_L32-4
  A
  B
  C
  D
  E
  F
  G
  H
  I
  J
  K
  L
  M
  N
  O
  P
  Q
  R
  S
  T
  U
  V
  W
  X
  Y
  Z
  A1
  B1
  C1
  D1)
    )
  )
)
(assert
  (forall ( (A Int) (B (Array Int Int)) (C (Array Int Int)) (D (Array Int (Array Int Int))) (E (Array Int (Array Int Int))) (F Int) (G Int) (H (Array Int Int)) (I (Array Int Int)) (J Int) (K Int) (L Int) (M Int) (N Int) (O Int) (P Int) (Q Int) (R Int) (S Int) (T Int) (U Int) (V Int) (W Int) (X Int) (Y Int) (Z Int) (A1 Int) (B1 Int) (C1 Int) (D1 Bool) ) 
    (=>
      (and
        (ULTIMATE.start_L32-3
  A
  B
  C
  D
  E
  F
  G
  H
  I
  J
  K
  L
  M
  N
  O
  P
  Q
  R
  S
  T
  U
  V
  W
  X
  Y
  Z
  A1
  B1
  C1
  D1)
        (or D1 (not (<= 100000 O)))
      )
      (ULTIMATE.start_L34
  A
  B
  C
  D
  E
  F
  G
  H
  I
  J
  K
  L
  M
  N
  O
  P
  Q
  R
  S
  T
  U
  V
  W
  X
  Y
  Z
  A1
  B1
  C1
  D1)
    )
  )
)
(assert
  (forall ( (A Int) (B (Array Int Int)) (C (Array Int Int)) (D (Array Int (Array Int Int))) (E (Array Int (Array Int Int))) (F Int) (G Int) (H (Array Int Int)) (I (Array Int Int)) (J Int) (K Int) (L Int) (M Int) (N Int) (O Int) (P Int) (Q Int) (R Int) (S Int) (T Int) (U Int) (V Int) (W Int) (X Int) (Y Int) (Z Int) (A1 Int) (B1 Int) (C1 Int) (D1 Bool) (E1 Int) ) 
    (=>
      (and
        (ULTIMATE.start_L14-2
  A
  B
  C
  D
  E
  F
  G
  H
  I
  J
  K
  L
  M
  N
  O
  P
  Q
  R
  S
  T
  U
  V
  W
  E1
  Y
  Z
  A1
  B1
  C1
  D1)
        (let ((a!1 (= X (select (select D V) (+ M (* 4 O))))))
  (or D1 a!1))
      )
      (ULTIMATE.start_L19
  A
  B
  C
  D
  E
  F
  G
  H
  I
  J
  K
  L
  M
  N
  O
  P
  Q
  R
  S
  T
  U
  V
  W
  X
  Y
  Z
  A1
  B1
  C1
  D1)
    )
  )
)
(assert
  (forall ( (A Int) (B (Array Int Int)) (C (Array Int Int)) (D (Array Int (Array Int Int))) (E (Array Int (Array Int Int))) (F Int) (G Int) (H (Array Int Int)) (I (Array Int Int)) (J Int) (K Int) (L Int) (M Int) (N Int) (O Int) (P Int) (Q Int) (R Int) (S Int) (T Int) (U Int) (V Int) (W Int) (X Int) (Y Int) (Z Int) (A1 Int) (B1 Int) (C1 Int) (D1 Bool) (E1 (Array Int Int)) (F1 Int) (G1 Int) (H1 Int) (I1 Int) (J1 Int) (K1 Int) (L1 Int) ) 
    (=>
      (and
        (ULTIMATE.start_L32-4
  A
  E1
  C
  D
  E
  F
  G
  H
  I
  J
  K
  L
  F1
  N
  O
  P
  G1
  H1
  S
  T
  U
  I1
  J1
  X
  K1
  Z
  L1
  B1
  C1
  D1)
        (let ((a!1 (= B (store (store (store E1 I1 0) K1 0) H1 0))))
  (or D1 (and (= W 0) a!1)))
      )
      (ULTIMATE.start_L39
  A
  B
  C
  D
  E
  F
  G
  H
  I
  J
  K
  L
  M
  N
  O
  P
  Q
  R
  S
  T
  U
  V
  W
  X
  Y
  Z
  A1
  B1
  C1
  D1)
    )
  )
)
(assert
  (forall ( (A Int) (B (Array Int Int)) (C (Array Int Int)) (D (Array Int (Array Int Int))) (E (Array Int (Array Int Int))) (F Int) (G Int) (H (Array Int Int)) (I (Array Int Int)) (J Int) (K Int) (L Int) (M Int) (N Int) (O Int) (P Int) (Q Int) (R Int) (S Int) (T Int) (U Int) (V Int) (W Int) (X Int) (Y Int) (Z Int) (A1 Int) (B1 Int) (C1 Int) (D1 Bool) (E1 Int) (F1 Int) (G1 Int) ) 
    (=>
      (and
        (ULTIMATE.start_L34
  A
  B
  C
  D
  E
  F
  G
  H
  I
  J
  K
  L
  M
  E1
  O
  P
  Q
  R
  S
  T
  U
  V
  W
  X
  Y
  F1
  A1
  G1
  C1
  D1)
        (let ((a!1 (= B1 (select (select D R) (+ Q (* 4 O))))))
(let ((a!2 (and a!1 (= Z (ite (= B1 0) 1 0)) (= N Z) (= 15000 O))))
  (or D1 a!2)))
      )
      (ULTIMATE.start_L2
  A
  B
  C
  D
  E
  F
  G
  H
  I
  J
  K
  L
  M
  N
  O
  P
  Q
  R
  S
  T
  U
  V
  W
  X
  Y
  Z
  A1
  B1
  C1
  D1)
    )
  )
)
(assert
  (forall ( (A Int) (B (Array Int Int)) (C (Array Int Int)) (D (Array Int (Array Int Int))) (E (Array Int (Array Int Int))) (F Int) (G Int) (H (Array Int Int)) (I (Array Int Int)) (J Int) (K Int) (L Int) (M Int) (N Int) (O Int) (P Int) (Q Int) (R Int) (S Int) (T Int) (U Int) (V Int) (W Int) (X Int) (Y Int) (Z Int) (A1 Int) (B1 Int) (C1 Int) (D1 Bool) ) 
    (=>
      (and
        (ULTIMATE.start_L34
  A
  B
  C
  D
  E
  F
  G
  H
  I
  J
  K
  L
  M
  N
  O
  P
  Q
  R
  S
  T
  U
  V
  W
  X
  Y
  Z
  A1
  B1
  C1
  D1)
        (or D1 (not (= 15000 O)))
      )
      (ULTIMATE.start_L32-2
  A
  B
  C
  D
  E
  F
  G
  H
  I
  J
  K
  L
  M
  N
  O
  P
  Q
  R
  S
  T
  U
  V
  W
  X
  Y
  Z
  A1
  B1
  C1
  D1)
    )
  )
)
(assert
  (forall ( (A Int) (B (Array Int Int)) (C (Array Int Int)) (D (Array Int (Array Int Int))) (E (Array Int (Array Int Int))) (F Int) (G Int) (H (Array Int Int)) (I (Array Int Int)) (J Int) (K Int) (L Int) (M Int) (N Int) (O Int) (P Int) (Q Int) (R Int) (S Int) (T Int) (U Int) (V Int) (W Int) (X Int) (Y Int) (Z Int) (A1 Int) (B1 Int) (C1 Int) (D1 Bool) (E1 Int) (F1 Int) ) 
    (=>
      (and
        (ULTIMATE.start_L19
  A
  B
  C
  D
  E
  F
  G
  H
  I
  J
  K
  L
  M
  N
  O
  P
  Q
  R
  S
  T
  U
  V
  W
  E1
  Y
  Z
  A1
  B1
  F1
  D1)
        (let ((a!1 (= (select (select D Y) (+ A1 (* 4 O))) C1)))
  (or D1 (and (not (= E1 0)) a!1)))
      )
      (ULTIMATE.start_L21
  A
  B
  C
  D
  E
  F
  G
  H
  I
  J
  K
  L
  M
  N
  O
  P
  Q
  R
  S
  T
  U
  V
  W
  X
  Y
  Z
  A1
  B1
  C1
  D1)
    )
  )
)
(assert
  (forall ( (A Int) (B (Array Int Int)) (C (Array Int Int)) (D (Array Int (Array Int Int))) (E (Array Int (Array Int Int))) (F Int) (G Int) (H (Array Int Int)) (I (Array Int Int)) (J Int) (K Int) (L Int) (M Int) (N Int) (O Int) (P Int) (Q Int) (R Int) (S Int) (T Int) (U Int) (V Int) (W Int) (X Int) (Y Int) (Z Int) (A1 Int) (B1 Int) (C1 Int) (D1 Bool) (E1 Int) ) 
    (=>
      (and
        (ULTIMATE.start_L19
  A
  B
  C
  D
  E
  F
  G
  H
  I
  J
  K
  L
  M
  N
  O
  P
  Q
  R
  S
  T
  U
  V
  W
  E1
  Y
  Z
  A1
  B1
  C1
  D1)
        (or D1 (= E1 0))
      )
      (ULTIMATE.start_L10-2
  A
  B
  C
  D
  E
  F
  G
  H
  I
  J
  K
  L
  M
  N
  O
  P
  Q
  R
  S
  T
  U
  V
  W
  X
  Y
  Z
  A1
  B1
  C1
  D1)
    )
  )
)
(assert
  (forall ( (A Int) (B (Array Int Int)) (C (Array Int Int)) (D (Array Int (Array Int Int))) (E (Array Int (Array Int Int))) (F Int) (G Int) (H (Array Int Int)) (I (Array Int Int)) (J Int) (K Int) (L Int) (M Int) (N Int) (O Int) (P Int) (Q Int) (R Int) (S Int) (T Int) (U Int) (V Int) (W Int) (X Int) (Y Int) (Z Int) (A1 Int) (B1 Int) (C1 Int) (D1 Bool) (E1 Int) ) 
    (=>
      (and
        (ULTIMATE.start_L39
  A
  B
  C
  D
  E
  F
  G
  H
  I
  J
  K
  L
  M
  N
  O
  P
  Q
  R
  E1
  T
  U
  V
  W
  X
  Y
  Z
  A1
  B1
  C1
  D1)
        (or D1 (= S W))
      )
      (ULTIMATE.start_ULTIMATE.startFINAL
  A
  B
  C
  D
  E
  F
  G
  H
  I
  J
  K
  L
  M
  N
  O
  P
  Q
  R
  S
  T
  U
  V
  W
  X
  Y
  Z
  A1
  B1
  C1
  D1)
    )
  )
)
(assert
  (forall ( (A Int) (B (Array Int Int)) (C (Array Int Int)) (D (Array Int (Array Int Int))) (E (Array Int (Array Int Int))) (F Int) (G Int) (H (Array Int Int)) (I (Array Int Int)) (J Int) (K Int) (L Int) (M Int) (N Int) (O Int) (P Int) (Q Int) (R Int) (S Int) (T Int) (U Int) (V Int) (W Int) (X Int) (Y Int) (Z Int) (A1 Int) (B1 Int) (C1 Int) (D1 Bool) ) 
    (=>
      (and
        (ULTIMATE.start_L2
  A
  B
  C
  D
  E
  F
  G
  H
  I
  J
  K
  L
  M
  N
  O
  P
  Q
  R
  S
  T
  U
  V
  W
  X
  Y
  Z
  A1
  B1
  C1
  D1)
        (or D1 (= 0 N))
      )
      (ULTIMATE.start_L2-1
  A
  B
  C
  D
  E
  F
  G
  H
  I
  J
  K
  L
  M
  N
  O
  P
  Q
  R
  S
  T
  U
  V
  W
  X
  Y
  Z
  A1
  B1
  C1
  D1)
    )
  )
)
(assert
  (forall ( (A Int) (B (Array Int Int)) (C (Array Int Int)) (D (Array Int (Array Int Int))) (E (Array Int (Array Int Int))) (F Int) (G Int) (H (Array Int Int)) (I (Array Int Int)) (J Int) (K Int) (L Int) (M Int) (N Int) (O Int) (P Int) (Q Int) (R Int) (S Int) (T Int) (U Int) (V Int) (W Int) (X Int) (Y Int) (Z Int) (A1 Int) (B1 Int) (C1 Int) (D1 Bool) ) 
    (=>
      (and
        (ULTIMATE.start_L2
  A
  B
  C
  D
  E
  F
  G
  H
  I
  J
  K
  L
  M
  N
  O
  P
  Q
  R
  S
  T
  U
  V
  W
  X
  Y
  Z
  A1
  B1
  C1
  D1)
        (or D1 (not (= 0 N)))
      )
      (ULTIMATE.start_L2-3
  A
  B
  C
  D
  E
  F
  G
  H
  I
  J
  K
  L
  M
  N
  O
  P
  Q
  R
  S
  T
  U
  V
  W
  X
  Y
  Z
  A1
  B1
  C1
  D1)
    )
  )
)
(assert
  (forall ( (A Int) (B (Array Int Int)) (C (Array Int Int)) (D (Array Int (Array Int Int))) (E (Array Int (Array Int Int))) (F Int) (G Int) (H (Array Int Int)) (I (Array Int Int)) (J Int) (K Int) (L Int) (M Int) (N Int) (O Int) (P Int) (Q Int) (R Int) (S Int) (T Int) (U Int) (V Int) (W Int) (X Int) (Y Int) (Z Int) (A1 Int) (B1 Int) (C1 Int) (D1 Bool) (E1 Int) (F1 Int) ) 
    (=>
      (and
        (ULTIMATE.start_L32-2
  A
  B
  C
  D
  E
  F
  G
  H
  I
  J
  K
  L
  M
  N
  E1
  P
  Q
  R
  S
  F1
  U
  V
  W
  X
  Y
  Z
  A1
  B1
  C1
  D1)
        (or D1 (= E1 (+ (- 1) O)))
      )
      (ULTIMATE.start_L32-3
  A
  B
  C
  D
  E
  F
  G
  H
  I
  J
  K
  L
  M
  N
  O
  P
  Q
  R
  S
  T
  U
  V
  W
  X
  Y
  Z
  A1
  B1
  C1
  D1)
    )
  )
)
(assert
  (forall ( (A Int) (B (Array Int Int)) (C (Array Int Int)) (D (Array Int (Array Int Int))) (E (Array Int (Array Int Int))) (F Int) (G Int) (H (Array Int Int)) (I (Array Int Int)) (J Int) (K Int) (L Int) (M Int) (N Int) (O Int) (P Int) (Q Int) (R Int) (S Int) (T Int) (U Int) (V Int) (W Int) (X Int) (Y Int) (Z Int) (A1 Int) (B1 Int) (C1 Int) (D1 Bool) (E1 (Array Int (Array Int Int))) (F1 Int) ) 
    (=>
      (and
        (ULTIMATE.start_L21
  A
  B
  C
  E1
  E
  F
  G
  H
  I
  J
  K
  L
  M
  N
  O
  P
  Q
  R
  S
  T
  U
  V
  W
  X
  Y
  Z
  A1
  B1
  F1
  D1)
        (let ((a!1 (store E1 R (store (select E1 R) (+ Q (* 4 O)) 0))))
  (or D1 (and (= F1 0) (= D a!1))))
      )
      (ULTIMATE.start_L10-2
  A
  B
  C
  D
  E
  F
  G
  H
  I
  J
  K
  L
  M
  N
  O
  P
  Q
  R
  S
  T
  U
  V
  W
  X
  Y
  Z
  A1
  B1
  C1
  D1)
    )
  )
)
(assert
  (forall ( (A Int) (B (Array Int Int)) (C (Array Int Int)) (D (Array Int (Array Int Int))) (E (Array Int (Array Int Int))) (F Int) (G Int) (H (Array Int Int)) (I (Array Int Int)) (J Int) (K Int) (L Int) (M Int) (N Int) (O Int) (P Int) (Q Int) (R Int) (S Int) (T Int) (U Int) (V Int) (W Int) (X Int) (Y Int) (Z Int) (A1 Int) (B1 Int) (C1 Int) (D1 Bool) (E1 (Array Int (Array Int Int))) (F1 Int) ) 
    (=>
      (and
        (ULTIMATE.start_L21
  A
  B
  C
  E1
  E
  F
  G
  H
  I
  J
  K
  L
  M
  N
  O
  P
  Q
  R
  S
  T
  U
  V
  W
  X
  Y
  Z
  A1
  B1
  F1
  D1)
        (let ((a!1 (store E1 R (store (select E1 R) (+ Q (* 4 O)) 1))))
  (or D1 (and (not (= F1 0)) (= D a!1))))
      )
      (ULTIMATE.start_L10-2
  A
  B
  C
  D
  E
  F
  G
  H
  I
  J
  K
  L
  M
  N
  O
  P
  Q
  R
  S
  T
  U
  V
  W
  X
  Y
  Z
  A1
  B1
  C1
  D1)
    )
  )
)
(assert
  (forall ( (A Int) (B (Array Int Int)) (C (Array Int Int)) (D (Array Int (Array Int Int))) (E (Array Int (Array Int Int))) (F Int) (G Int) (H (Array Int Int)) (I (Array Int Int)) (J Int) (K Int) (L Int) (M Int) (N Int) (O Int) (P Int) (Q Int) (R Int) (S Int) (T Int) (U Int) (V Int) (W Int) (X Int) (Y Int) (Z Int) (A1 Int) (B1 Int) (C1 Int) (D1 Bool) (E1 Int) (F1 Int) ) 
    (=>
      (and
        (ULTIMATE.start_L10-2
  A
  B
  C
  D
  E
  F
  G
  H
  I
  J
  K
  L
  M
  N
  E1
  F1
  Q
  R
  S
  T
  U
  V
  W
  X
  Y
  Z
  A1
  B1
  C1
  D1)
        (or D1 (= E1 (+ (- 1) O)))
      )
      (ULTIMATE.start_L10-3
  A
  B
  C
  D
  E
  F
  G
  H
  I
  J
  K
  L
  M
  N
  O
  P
  Q
  R
  S
  T
  U
  V
  W
  X
  Y
  Z
  A1
  B1
  C1
  D1)
    )
  )
)
(assert
  (forall ( (A Int) (B (Array Int Int)) (C (Array Int Int)) (D (Array Int (Array Int Int))) (E (Array Int (Array Int Int))) (F Int) (G Int) (H (Array Int Int)) (I (Array Int Int)) (J Int) (K Int) (L Int) (M Int) (N Int) (O Int) (P Int) (Q Int) (R Int) (S Int) (T Int) (U Int) (V Int) (W Int) (X Int) (Y Int) (Z Int) (A1 Int) (B1 Int) (C1 Int) (D1 Bool) ) 
    (=>
      (and
        (ULTIMATE.start_ULTIMATE.startFINAL
  A
  B
  C
  D
  E
  F
  G
  H
  I
  J
  K
  L
  M
  N
  O
  P
  Q
  R
  S
  T
  U
  V
  W
  X
  Y
  Z
  A1
  B1
  C1
  D1)
        true
      )
      (ULTIMATE.start_ULTIMATE.startEXIT
  A
  B
  C
  D
  E
  F
  G
  H
  I
  J
  K
  L
  M
  N
  O
  P
  Q
  R
  S
  T
  U
  V
  W
  X
  Y
  Z
  A1
  B1
  C1
  D1)
    )
  )
)
(assert
  (forall ( (A Int) (B (Array Int Int)) (C (Array Int Int)) (D (Array Int (Array Int Int))) (E (Array Int (Array Int Int))) (F Int) (G Int) (H (Array Int Int)) (I (Array Int Int)) (J Int) (K Int) (L Int) (M Int) (N Int) (O Int) (P Int) (Q Int) (R Int) (S Int) (T Int) (U Int) (V Int) (W Int) (X Int) (Y Int) (Z Int) (A1 Int) (B1 Int) (C1 Int) (D1 Bool) (E1 Bool) ) 
    (=>
      (and
        (ULTIMATE.start_L2-1
  A
  B
  C
  D
  E
  F
  G
  H
  I
  J
  K
  L
  M
  N
  O
  P
  Q
  R
  S
  T
  U
  V
  W
  X
  Y
  Z
  A1
  B1
  C1
  E1)
        (= D1 true)
      )
      (ULTIMATE.start_ULTIMATE.startEXIT
  A
  B
  C
  D
  E
  F
  G
  H
  I
  J
  K
  L
  M
  N
  O
  P
  Q
  R
  S
  T
  U
  V
  W
  X
  Y
  Z
  A1
  B1
  C1
  D1)
    )
  )
)
(assert
  (forall ( (A Int) (B (Array Int Int)) (C (Array Int Int)) (D (Array Int (Array Int Int))) (E (Array Int (Array Int Int))) (F Int) (G Int) (H (Array Int Int)) (I (Array Int Int)) (J Int) (K Int) (L Int) (M Int) (N Int) (O Int) (P Int) (Q Int) (R Int) (S Int) (T Int) (U Int) (V Int) (W Int) (X Int) (Y Int) (Z Int) (A1 Int) (B1 Int) (C1 Int) (D1 Bool) ) 
    (=>
      (and
        (ULTIMATE.start_L2-1
  A
  B
  C
  D
  E
  F
  G
  H
  I
  J
  K
  L
  M
  N
  O
  P
  Q
  R
  S
  T
  U
  V
  W
  X
  Y
  Z
  A1
  B1
  C1
  D1)
        (= D1 true)
      )
      (ULTIMATE.start_L2-3
  A
  B
  C
  D
  E
  F
  G
  H
  I
  J
  K
  L
  M
  N
  O
  P
  Q
  R
  S
  T
  U
  V
  W
  X
  Y
  Z
  A1
  B1
  C1
  D1)
    )
  )
)
(assert
  (forall ( (A Int) (B (Array Int Int)) (C (Array Int Int)) (D (Array Int (Array Int Int))) (E (Array Int (Array Int Int))) (F Int) (G Int) (H (Array Int Int)) (I (Array Int Int)) (J Int) (K Int) (L Int) (M Int) (N Int) (O Int) (P Int) (Q Int) (R Int) (S Int) (T Int) (U Int) (V Int) (W Int) (X Int) (Y Int) (Z Int) (A1 Int) (B1 Int) (C1 Int) (D1 Bool) (E1 Int) ) 
    (=>
      (and
        (ULTIMATE.start_L2-3
  A
  B
  C
  D
  E
  F
  G
  H
  I
  J
  K
  L
  M
  N
  O
  P
  Q
  R
  S
  T
  U
  V
  W
  X
  Y
  Z
  A1
  E1
  C1
  D1)
        true
      )
      (ULTIMATE.start_L32-2
  A
  B
  C
  D
  E
  F
  G
  H
  I
  J
  K
  L
  M
  N
  O
  P
  Q
  R
  S
  T
  U
  V
  W
  X
  Y
  Z
  A1
  B1
  C1
  D1)
    )
  )
)
(assert
  (forall ( (A Int) (B (Array Int Int)) (C (Array Int Int)) (D (Array Int (Array Int Int))) (E (Array Int (Array Int Int))) (F Int) (G Int) (H (Array Int Int)) (I (Array Int Int)) (J Int) (K Int) (L Int) (M Int) (N Int) (O Int) (P Int) (Q Int) (R Int) (S Int) (T Int) (U Int) (V Int) (W Int) (X Int) (Y Int) (Z Int) (A1 Int) (B1 Int) (C1 Int) (D1 Bool) ) 
    (=>
      (and
        (and (= I H) (= B C) (= K J) (= F G) (not D1) (= D E))
      )
      (ULTIMATE.start_ULTIMATE.startENTRY
  A
  B
  C
  D
  E
  F
  G
  H
  I
  J
  K
  L
  M
  N
  O
  P
  Q
  R
  S
  T
  U
  V
  W
  X
  Y
  Z
  A1
  B1
  C1
  D1)
    )
  )
)
(assert
  (forall ( (A Int) (B (Array Int Int)) (C (Array Int Int)) (D (Array Int (Array Int Int))) (E (Array Int (Array Int Int))) (F Int) (G Int) (H (Array Int Int)) (I (Array Int Int)) (J Int) (K Int) (L Int) (M Int) (N Int) (O Int) (P Int) (Q Int) (R Int) (S Int) (T Int) (U Int) (V Int) (W Int) (X Int) (Y Int) (Z Int) (A1 Int) (B1 Int) (C1 Int) (D1 Bool) ) 
    (=>
      (and
        (ULTIMATE.start_ULTIMATE.startEXIT
  A
  B
  C
  D
  E
  F
  G
  H
  I
  J
  K
  L
  M
  N
  O
  P
  Q
  R
  S
  T
  U
  V
  W
  X
  Y
  Z
  A1
  B1
  C1
  D1)
        (= D1 true)
      )
      false
    )
  )
)

(check-sat)
(exit)
